qbf_easy_train/easy_1693_UNSAT.qdimacs
p cnf 36 102
a 24 34 32 0
e 1 2 3 4 5 6 7 8 9 10 11 12 13 14 15 16 17 18 19 20 21 22 23 25 26 27 28 29 30 31 33 35 36 0
-2 -1 0
-2 -1 0
1 2 0
-3 2 0
-3 -1 0
-2 1 3 0
3 1 -4 0
-3 -1 -4 0
3 -1 4 0
-3 1 4 0
5 -1 -6 0
-5 1 -6 0
5 1 6 0
-5 -1 6 0
-7 -2 0
-7 6 0
2 -6 7 0
-8 7 0
-8 -2 0
-7 2 8 0
4 -8 -9 0
-4 8 -9 0
4 8 9 0
-4 -8 9 0
10 1 0
10 2 0
-1 -2 -10 0
-1 10 -11 0
1 -10 -11 0
-1 -10 11 0
1 10 11 0
-12 9 0
-12 11 0
-9 -11 12 0
15 13 0
15 -14 0
-13 14 -15 0
-16 -15 0
-16 -3 0
15 3 16 0
17 12 0
17 -16 0
-12 16 -17 0
-19 -14 0
-19 -2 0
14 2 19 0
-20 -18 0
-20 -19 0
18 19 20 0
21 17 0
21 -20 0
-17 20 -21 0
-22 -1 -23 0
22 1 -23 0
-22 1 23 0
22 -1 23 0
-24 -3 0
-24 -7 0
3 7 24 0
25 3 -26 0
-25 -3 -26 0
25 -3 26 0
-25 3 26 0
-27 26 0
-27 5 0
-26 -5 27 0
-29 25 0
-29 -19 0
-25 19 29 0
30 28 0
30 -29 0
-28 29 -30 0
-31 -27 0
-31 30 0
27 -30 31 0
24 31 -32 0
-24 -31 -32 0
24 -31 32 0
-24 31 32 0
33 6 0
33 14 0
-6 -14 -33 0
32 33 -34 0
-32 -33 -34 0
32 -33 34 0
-32 33 34 0
35 -23 0
35 34 0
23 -34 -35 0
36 21 0
36 35 0
-21 -35 -36 0
17 25 34 32 0
30 5 -31 36 -15 0
4 31 32 0
-1 -3 12 17 -4 -33 -21 -26 0
20 22 1 26 36 -13 -15 0
-31 33 -8 24 -23 -3 -16 0
-31 28 7 -32 -8 0
16 -32 -27 0
19 -20 32 -34 -22 0
36 0
