sat_easy_train/easy_1693_UNSAT.dimacs
p cnf 123 410
-1 -2 0
1 -2 0
4 -2 0
4 3 0
2 -3 -4 0
-8 6 0
-8 -7 0
-6 7 8 0
-5 8 -9 0
5 -8 -9 0
-5 -8 9 0
5 8 9 0
-10 -4 0
-10 -9 0
4 9 10 0
-13 -11 0
-13 12 0
11 -12 13 0
14 1 0
14 7 0
-1 -7 -14 0
-15 13 0
-15 -14 0
-13 14 15 0
17 8 0
17 4 0
-8 -4 -17 0
12 -18 0
-12 -18 0
18 -2 -19 0
-18 2 -19 0
18 2 19 0
-18 -2 19 0
-19 18 -20 0
19 -18 -20 0
-19 -18 20 0
19 18 20 0
21 -17 0
21 20 0
17 -20 -21 0
-22 -16 0
-22 -21 0
16 21 22 0
23 -15 0
23 22 0
15 -22 -23 0
-10 -23 -24 0
10 23 -24 0
-10 23 24 0
10 -23 24 0
-26 25 0
-26 -8 0
-25 8 26 0
30 28 0
30 29 0
-28 -29 -30 0
31 12 0
31 30 0
-12 -30 -31 0
-32 -27 0
-32 31 0
27 -31 32 0
33 -29 0
33 -12 0
29 12 -33 0
-20 33 -34 0
20 -33 -34 0
-20 -33 34 0
20 33 34 0
-35 -32 0
-35 -34 0
32 34 35 0
-26 35 -36 0
26 -35 -36 0
-26 -35 36 0
26 35 36 0
-37 5 0
-37 30 0
-5 -30 37 0
36 37 -38 0
-36 -37 -38 0
36 -37 38 0
-36 37 38 0
39 -24 0
39 38 0
24 -38 -39 0
41 -40 0
41 -16 0
40 16 -41 0
-42 41 0
-42 9 0
-41 -9 42 0
-43 2 0
-43 -28 0
-2 28 43 0
-44 28 0
-44 -43 0
-28 43 44 0
45 -42 0
45 44 0
42 -44 -45 0
-40 -29 -46 0
40 29 -46 0
-40 29 46 0
40 -29 46 0
-47 46 0
-47 -19 0
-46 19 47 0
45 -47 -48 0
-45 47 -48 0
45 47 48 0
-45 -47 48 0
-39 48 -49 0
39 -48 -49 0
-39 -48 49 0
39 48 49 0
-50 -6 0
-50 12 0
6 -12 50 0
51 28 0
51 50 0
-28 -50 -51 0
-51 1 -52 0
51 -1 -52 0
-51 -1 52 0
51 1 52 0
-49 -52 -53 0
49 52 -53 0
-49 52 53 0
49 -52 53 0
-31 1 -54 0
31 -1 -54 0
-31 -1 54 0
31 1 54 0
-54 -55 -56 0
54 55 -56 0
-54 55 56 0
54 -55 56 0
-53 -56 -57 0
53 56 -57 0
-53 56 57 0
53 -56 57 0
58 -6 0
58 28 0
6 -28 -58 0
-58 40 -59 0
58 -40 -59 0
-58 -40 59 0
58 40 59 0
31 -25 -60 0
-31 25 -60 0
31 25 60 0
-31 -25 60 0
61 59 0
61 -60 0
-59 60 -61 0
-62 41 0
-62 12 0
-41 -12 62 0
-63 -8 0
-63 62 0
8 -62 63 0
-64 -31 0
-64 -63 0
31 63 64 0
65 -30 0
65 2 0
30 -2 -65 0
-66 -3 -67 0
66 3 -67 0
-66 3 67 0
66 -3 67 0
68 -65 0
68 67 0
65 -67 -68 0
-69 -28 0
-69 -68 0
28 68 69 0
-70 64 0
-70 -69 0
-64 69 70 0
-18 -16 -71 0
18 16 -71 0
-18 16 71 0
18 -16 71 0
-72 -7 0
-72 -71 0
7 71 72 0
-70 72 -73 0
70 -72 -73 0
-70 -72 73 0
70 72 73 0
74 62 0
74 -50 0
-62 50 -74 0
-75 -73 0
-75 74 0
73 -74 75 0
76 -61 0
76 75 0
61 -75 -76 0
-27 77 0
27 77 0
78 76 0
78 -77 0
-76 77 -78 0
79 57 0
79 -78 0
-57 78 -79 0
34 -25 -80 0
-34 25 -80 0
34 25 80 0
-34 -25 80 0
81 -6 0
81 66 0
6 -66 -81 0
-82 -81 0
-82 6 0
81 -6 82 0
83 68 0
83 82 0
-68 -82 -83 0
-84 -80 0
-84 -83 0
80 83 84 0
-85 -31 0
-85 -65 0
31 65 85 0
-14 -85 -86 0
14 85 -86 0
-14 85 86 0
14 -85 86 0
30 -16 -87 0
-30 16 -87 0
30 16 87 0
-30 -16 87 0
88 -29 0
88 87 0
29 -87 -88 0
-88 -71 -89 0
88 71 -89 0
-88 71 89 0
88 -71 89 0
89 1 -90 0
-89 -1 -90 0
89 -1 90 0
-89 1 90 0
91 89 0
91 81 0
-89 -81 -91 0
-92 -90 0
-92 -91 0
90 91 92 0
-1 -30 -93 0
1 30 -93 0
-1 30 93 0
1 -30 93 0
94 -66 0
94 -93 0
66 93 -94 0
-95 -3 0
-95 -25 0
3 25 95 0
-96 71 0
-96 -11 0
-71 11 96 0
95 -96 -97 0
-95 96 -97 0
95 96 97 0
-95 -96 97 0
27 5 -98 0
-27 -5 -98 0
27 -5 98 0
-27 5 98 0
99 67 0
99 -19 0
-67 19 -99 0
98 99 -100 0
-98 -99 -100 0
98 -99 100 0
-98 99 100 0
-97 100 -101 0
97 -100 -101 0
-97 -100 101 0
97 100 101 0
102 -94 0
102 -101 0
94 101 -102 0
103 -3 0
103 51 0
3 -51 -103 0
-104 88 0
-104 -58 0
-88 58 104 0
-104 98 -105 0
104 -98 -105 0
-104 -98 105 0
104 98 105 0
106 58 0
106 11 0
-58 -11 -106 0
-107 98 0
-107 -106 0
-98 106 107 0
108 -105 0
108 107 0
105 -107 -108 0
43 29 -109 0
-43 -29 -109 0
43 -29 109 0
-43 29 109 0
-108 -109 -110 0
108 109 -110 0
-108 109 110 0
108 -109 110 0
-71 -89 -111 0
71 89 -111 0
-71 89 111 0
71 -89 111 0
113 -112 0
113 33 0
112 -33 -113 0
-114 111 0
-114 113 0
-111 -113 114 0
-115 -110 0
-115 -114 0
110 114 115 0
116 41 0
116 27 0
-41 -27 -116 0
-115 116 -117 0
115 -116 -117 0
-115 -116 117 0
115 116 117 0
103 117 -118 0
-103 -117 -118 0
103 -117 118 0
-103 117 118 0
119 -102 0
119 118 0
102 -118 -119 0
-120 -92 0
-120 119 0
92 -119 120 0
-121 -86 0
-121 -120 0
86 120 121 0
84 -121 -122 0
-84 121 -122 0
84 121 122 0
-84 -121 122 0
79 122 -123 0
-79 -122 -123 0
79 -122 123 0
-79 122 123 0
24 114 4 105 67 0
-62 4 15 65 0
33 82 -91 0
-31 -2 91 -71 0
-26 -99 48 108 0
78 37 0
78 93 40 123 0
-116 9 0
-84 38 -62 78 -99 0
-103 39 -108 0
-2 -34 -88 119 0
97 -29 -95 52 0
-46 45 -17 0
-103 -42 -18 6 28 82 0
37 -61 -41 -12 0
-74 -19 122 -16 20 0
52 -55 35 72 76 -50 0
60 75 -38 111 -105 0
-17 39 61 0
63 -70 4 -61 -12 0
90 -88 -35 -50 12 119 0
-106 88 -73 0
-121 96 0
-6 -47 -57 -31 -56 -88 0
-33 114 -13 48 -30 0
16 -46 4 -5 9 -57 0
-59 -45 -122 -100 94 0
112 -101 -53 -108 14 0
-100 75 113 17 0
36 -57 54 -53 -86 115 0
37 106 0
-98 -54 3 0
-113 92 -63 0
-53 24 -87 48 0
-46 -48 -50 0
30 32 -90 0
-33 -9 -112 120 -86 0
-5 58 -17 0
-77 -39 102 26 0
-53 -57 -109 0
109 98 0
91 99 0
-6 102 101 39 118 54 0
103 26 68 -36 0
103 68 -78 0
50 -25 73 39 -24 -21 0
-35 50 113 5 -20 0
88 63 84 -20 0
-46 -123 -51 -64 -45 -39 0
-116 63 -120 44 -95 -38 0
93 76 -3 -83 94 0
-80 -24 -11 105 -90 0
11 68 0
123 0
